sat
(:max-memory                   18.15
 :memory                       18.15
 :nlsat-conflicts              7
 :nlsat-decisions              3
 :nlsat-irrational-assignments 2
 :nlsat-propagations           29
 :nlsat-stages                 10
 :num-allocs                   32040
 :rlimit-count                 5088
 :time                         0.00
 :total-time                   0.01)
